c FILE: i160-215

c SOURCE: From steinlib

c DESCRIPTION: Steinlib instance with 160 nodes and 812 edges.

p edge 160 812
e 1 15
e 1 30
e 1 35
e 1 42
e 1 45
e 1 46
e 1 50
e 1 55
e 1 57
e 1 67
e 1 70
e 1 71
e 1 73
e 1 94
e 1 101
e 1 144
e 1 149
e 1 157
e 2 10
e 2 24
e 2 31
e 2 32
e 2 66
e 2 99
e 2 117
e 2 140
e 2 156
e 3 9
e 3 13
e 3 19
e 3 24
e 3 32
e 3 39
e 3 45
e 3 50
e 3 63
e 3 69
e 3 71
e 3 93
e 3 116
e 3 158
e 4 5
e 4 7
e 4 15
e 4 17
e 4 29
e 4 32
e 4 38
e 4 40
e 4 45
e 4 55
e 4 59
e 4 62
e 4 90
e 4 92
e 4 107
e 4 110
e 4 124
e 4 137
e 4 145
e 4 156
e 5 19
e 5 52
e 5 80
e 5 96
e 5 109
e 5 117
e 5 141
e 5 149
e 6 55
e 6 105
e 6 110
e 6 119
e 6 129
e 6 140
e 6 154
e 6 157
e 7 67
e 7 85
e 7 106
e 7 112
e 7 130
e 7 141
e 8 18
e 8 50
e 8 85
e 8 107
e 8 127
e 8 141
e 8 145
e 9 15
e 9 28
e 9 30
e 9 52
e 9 61
e 9 76
e 9 92
e 9 117
e 9 153
e 9 156
e 10 30
e 10 73
e 10 103
e 10 104
e 10 116
e 10 121
e 10 132
e 10 152
e 11 15
e 11 17
e 11 39
e 11 45
e 11 50
e 11 73
e 11 78
e 11 79
e 11 91
e 11 96
e 11 105
e 11 110
e 11 112
e 11 127
e 12 18
e 12 19
e 12 81
e 12 84
e 12 111
e 12 121
e 12 134
e 12 158
e 13 25
e 13 42
e 13 43
e 13 55
e 13 56
e 13 79
e 13 95
e 13 97
e 13 117
e 13 125
e 13 134
e 13 141
e 13 154
e 13 156
e 14 16
e 14 21
e 14 31
e 14 63
e 14 66
e 14 106
e 14 113
e 14 123
e 14 141
e 14 152
e 14 154
e 15 23
e 15 69
e 15 80
e 15 82
e 15 89
e 15 93
e 15 114
e 15 138
e 15 140
e 15 150
e 15 151
e 16 31
e 16 47
e 16 74
e 16 76
e 16 90
e 16 93
e 17 20
e 17 23
e 17 45
e 17 57
e 17 70
e 17 78
e 17 83
e 17 100
e 17 105
e 17 109
e 17 146
e 17 154
e 17 160
e 18 26
e 18 36
e 18 46
e 18 84
e 18 121
e 18 143
e 19 21
e 19 39
e 19 64
e 19 69
e 19 87
e 19 99
e 19 110
e 20 61
e 20 81
e 20 88
e 20 94
e 20 116
e 20 117
e 20 151
e 20 153
e 21 48
e 21 50
e 21 64
e 21 94
e 21 95
e 21 112
e 21 115
e 21 127
e 21 146
e 22 23
e 22 45
e 22 66
e 22 115
e 22 118
e 22 125
e 22 128
e 22 134
e 22 150
e 23 26
e 23 28
e 23 33
e 23 41
e 23 70
e 23 76
e 23 80
e 23 125
e 24 29
e 24 44
e 24 77
e 24 82
e 24 115
e 24 119
e 24 121
e 24 159
e 25 26
e 25 31
e 25 63
e 25 73
e 25 110
e 25 113
e 25 125
e 25 138
e 25 151
e 26 34
e 26 51
e 26 62
e 26 75
e 26 114
e 26 130
e 26 141
e 26 156
e 27 34
e 27 54
e 27 77
e 27 81
e 27 104
e 27 148
e 27 154
e 28 33
e 28 49
e 28 81
e 28 113
e 28 116
e 28 118
e 28 123
e 28 138
e 28 157
e 29 37
e 29 40
e 29 41
e 29 84
e 29 112
e 29 115
e 29 136
e 30 41
e 30 45
e 30 53
e 30 79
e 30 84
e 30 127
e 30 152
e 31 51
e 31 59
e 31 71
e 31 78
e 31 81
e 31 96
e 31 119
e 31 131
e 31 133
e 31 158
e 32 39
e 32 64
e 32 81
e 32 103
e 32 144
e 32 146
e 32 160
e 33 40
e 33 62
e 33 78
e 33 79
e 33 115
e 33 140
e 34 38
e 34 60
e 34 120
e 34 132
e 35 49
e 35 57
e 35 64
e 35 68
e 35 77
e 35 123
e 35 152
e 35 157
e 36 54
e 36 63
e 36 67
e 36 69
e 36 101
e 36 146
e 37 72
e 37 87
e 37 132
e 37 145
e 37 159
e 38 40
e 38 60
e 38 71
e 38 112
e 38 160
e 39 40
e 39 64
e 39 80
e 39 98
e 39 105
e 39 118
e 39 146
e 39 151
e 39 158
e 40 70
e 40 80
e 40 91
e 40 97
e 40 114
e 40 132
e 40 133
e 40 146
e 40 159
e 41 61
e 41 63
e 41 71
e 41 131
e 41 141
e 41 147
e 42 101
e 42 107
e 42 112
e 42 149
e 43 67
e 43 123
e 43 129
e 43 134
e 43 139
e 43 153
e 44 55
e 44 70
e 44 81
e 44 104
e 44 121
e 44 127
e 44 156
e 45 56
e 45 60
e 45 61
e 45 69
e 45 77
e 45 120
e 45 143
e 45 149
e 45 159
e 46 50
e 46 69
e 46 82
e 46 84
e 46 101
e 46 114
e 46 140
e 47 78
e 47 114
e 47 120
e 48 55
e 48 73
e 48 81
e 48 130
e 48 149
e 48 150
e 49 50
e 49 60
e 49 77
e 49 127
e 49 129
e 49 131
e 49 137
e 49 150
e 50 68
e 50 73
e 50 77
e 50 86
e 50 89
e 50 111
e 50 133
e 50 136
e 51 63
e 51 71
e 51 84
e 51 85
e 51 89
e 51 102
e 51 105
e 51 129
e 51 141
e 52 55
e 52 97
e 52 111
e 52 118
e 52 152
e 53 56
e 53 60
e 53 62
e 53 73
e 53 74
e 53 83
e 53 85
e 53 99
e 53 106
e 53 154
e 54 58
e 54 91
e 54 94
e 54 106
e 54 148
e 54 155
e 55 68
e 55 69
e 55 74
e 55 122
e 55 133
e 55 146
e 56 99
e 56 105
e 56 118
e 56 121
e 56 141
e 56 144
e 57 74
e 57 80
e 57 85
e 57 89
e 57 93
e 57 98
e 57 101
e 57 106
e 57 111
e 57 122
e 57 139
e 57 155
e 58 72
e 58 76
e 58 117
e 58 118
e 59 85
e 59 89
e 59 103
e 59 111
e 59 118
e 59 153
e 59 159
e 60 63
e 60 100
e 60 109
e 60 115
e 60 116
e 60 149
e 61 109
e 61 116
e 61 144
e 61 150
e 62 72
e 62 91
e 63 74
e 63 99
e 63 100
e 63 111
e 63 125
e 63 135
e 64 77
e 64 118
e 64 153
e 64 154
e 65 72
e 65 80
e 65 83
e 65 90
e 65 93
e 65 126
e 65 133
e 65 134
e 65 157
e 66 77
e 66 84
e 66 125
e 66 126
e 66 127
e 67 84
e 67 87
e 67 141
e 67 157
e 68 71
e 68 76
e 68 81
e 68 86
e 68 104
e 68 121
e 68 129
e 68 132
e 68 151
e 69 90
e 69 135
e 69 136
e 69 157
e 70 87
e 70 93
e 70 95
e 70 105
e 70 124
e 70 129
e 70 138
e 70 140
e 71 91
e 71 145
e 71 148
e 71 153
e 72 84
e 72 111
e 72 114
e 72 139
e 72 149
e 72 157
e 73 75
e 73 96
e 73 142
e 74 76
e 74 80
e 74 98
e 74 116
e 74 128
e 74 155
e 75 93
e 75 95
e 75 100
e 75 123
e 75 125
e 75 133
e 76 85
e 76 123
e 76 130
e 76 140
e 76 147
e 76 153
e 77 89
e 77 94
e 77 97
e 77 99
e 77 100
e 77 137
e 77 160
e 78 99
e 78 113
e 78 130
e 78 135
e 79 120
e 79 136
e 80 92
e 80 94
e 80 108
e 80 116
e 80 131
e 80 147
e 80 149
e 80 154
e 81 110
e 82 84
e 82 86
e 82 93
e 82 104
e 82 107
e 82 117
e 82 133
e 83 120
e 83 143
e 83 146
e 84 112
e 84 133
e 84 139
e 85 142
e 86 94
e 86 103
e 87 92
e 87 99
e 87 102
e 87 125
e 87 137
e 88 95
e 88 134
e 89 97
e 89 118
e 89 123
e 90 104
e 90 133
e 90 138
e 90 152
e 91 118
e 91 139
e 91 140
e 92 103
e 92 129
e 92 131
e 92 142
e 92 143
e 93 99
e 93 102
e 93 132
e 93 135
e 93 146
e 93 151
e 94 108
e 94 112
e 94 124
e 94 153
e 95 96
e 95 112
e 95 116
e 95 131
e 95 137
e 95 138
e 95 146
e 95 154
e 95 156
e 96 139
e 96 140
e 96 154
e 97 121
e 97 135
e 97 145
e 97 147
e 97 148
e 97 155
e 97 157
e 98 99
e 98 111
e 98 113
e 98 125
e 98 146
e 99 118
e 100 136
e 100 139
e 100 145
e 100 148
e 101 119
e 101 120
e 101 127
e 101 134
e 101 145
e 101 154
e 101 155
e 102 116
e 102 144
e 103 109
e 103 141
e 103 160
e 104 143
e 105 132
e 105 133
e 105 135
e 105 151
e 105 152
e 106 135
e 107 136
e 107 139
e 108 127
e 108 144
e 108 145
e 108 159
e 109 111
e 109 116
e 109 137
e 109 146
e 109 157
e 110 113
e 110 129
e 110 140
e 111 123
e 111 127
e 111 159
e 112 135
e 112 144
e 113 129
e 113 136
e 113 145
e 113 147
e 113 155
e 114 117
e 114 150
e 115 121
e 115 130
e 115 138
e 115 151
e 115 157
e 115 160
e 116 122
e 116 151
e 117 151
e 117 159
e 118 120
e 118 128
e 118 130
e 118 132
e 118 152
e 118 155
e 119 127
e 119 135
e 119 137
e 119 138
e 119 142
e 119 158
e 119 160
e 120 122
e 120 151
e 120 154
e 121 133
e 121 150
e 121 153
e 122 125
e 122 126
e 122 135
e 123 125
e 123 142
e 123 144
e 123 153
e 124 127
e 125 128
e 125 130
e 125 135
e 125 149
e 126 140
e 126 148
e 126 149
e 126 153
e 126 156
e 126 160
e 127 129
e 127 148
e 127 159
e 128 132
e 128 135
e 128 138
e 128 146
e 128 147
e 128 150
e 129 132
e 130 134
e 130 139
e 131 136
e 131 139
e 132 144
e 132 147
e 133 142
e 133 158
e 134 153
e 135 138
e 135 143
e 137 146
e 137 157
e 138 141
e 138 143
e 138 145
e 139 151
e 139 154
e 140 142
e 141 158
e 142 144
e 143 155
e 144 157
e 145 147
e 145 151
e 145 156
e 146 158
e 147 150
e 149 153
e 150 153
e 151 156
e 152 158
e 153 156
e 156 158
